
===== New CPLEX run =====
Instance: /home/yorig/tuner/mpils-tests/instances/miplib/easy/lotsize.mps
Config: /scratch/yorig/mpils-results-grid-seconds-5-no-mip-start/easy/16proc/seed-3/4_lotsize_seed-3_20260502_223218/expansion/config_param_CPXPARAM_MIP_Strategy_BBInterval_15_iter_1.prm
========================

Selected objective sense:  MINIMIZE
Selected objective  name:  R1921
Selected RHS        name:  B
Selected bound      name:  BOUND
Version identifier: 22.1.2.0 | 2024-11-26 | 0edbb82fd
CPXPARAM_Threads                                 8
CPXPARAM_Parallel                                1
CPXPARAM_MIP_Cuts_Cliques                        2
CPXPARAM_MIP_Cuts_FlowCovers                     2
CPXPARAM_MIP_Cuts_Implied                        1
CPXPARAM_MIP_Limits_GomoryCand                   800
CPXPARAM_MIP_Cuts_Gomory                         -1
CPXPARAM_MIP_Cuts_PathCut                        1
CPXPARAM_MIP_Cuts_MIRCut                         2
CPXPARAM_MIP_Cuts_Disjunctive                    2
CPXPARAM_Emphasis_MIP                            1
CPXPARAM_MIP_Strategy_BBInterval                 15
CPXPARAM_TimeLimit                               5
Tried aggregator 1 time.
MIP Presolve eliminated 595 rows and 0 columns.
MIP Presolve added 1190 rows and 0 columns.
MIP Presolve modified 10 coefficients.
Reduced MIP has 2515 rows, 2985 columns, and 7755 nonzeros.
Reduced MIP has 1195 binaries, 0 generals, 0 SOSs, and 0 indicators.
Presolve time = 0.00 sec. (4.53 ticks)
Probing fixed 0 vars, tightened 5487 bounds.
Probing time = 0.01 sec. (18.38 ticks)
Tried aggregator 2 times.
Detecting symmetries...
MIP Presolve modified 1206 coefficients.
Aggregator did 10 substitutions.
Reduced MIP has 2505 rows, 2975 columns, and 7735 nonzeros.
Reduced MIP has 1195 binaries, 0 generals, 0 SOSs, and 0 indicators.
Presolve time = 0.00 sec. (6.66 ticks)
Probing fixed 0 vars, tightened 2401 bounds.
Probing time = 0.00 sec. (6.41 ticks)
Clique table members: 190.
MIP emphasis: integer feasibility.
MIP search method: dynamic search.
Parallel mode: deterministic, using up to 8 threads.
Root relaxation solution time = 0.01 sec. (9.71 ticks)

        Nodes                                         Cuts/
   Node  Left     Objective  IInf  Best Integer    Best Bound    ItCnt     Gap

      0     0   348385.3466   472                 348385.3466      882         
      0     0   583577.4049   435                   Cuts: 726     1819         
      0     0   818290.4051   692                   Cuts: 726     2653         
*     0+    0                       1.01740e+07   818290.4051            91.96%
*     0+    0                      7973370.0000   818290.4051            89.74%
      0     0   947113.9594   686  7973370.0000     Cuts: 726     3332   88.12%
Detecting symmetries...
      0     2   947113.9594   686  7973370.0000   949700.7247     3332   88.09%
Elapsed time = 0.41 sec. (613.28 ticks, tree = 0.02 MB, solutions = 2)
    429   393   999212.8472   595  7973370.0000   949700.7247     7651   88.09%
   1024   831  1146818.7408   469  7973370.0000   949700.7247    13905   88.09%

Performing restart 1

Repeating presolve.
Tried aggregator 1 time.
MIP Presolve modified 1156 coefficients.
Reduced MIP has 2505 rows, 2975 columns, and 7735 nonzeros.
Reduced MIP has 1195 binaries, 0 generals, 0 SOSs, and 0 indicators.
Presolve time = 0.00 sec. (3.78 ticks)
Tried aggregator 1 time.
MIP Presolve modified 1023 coefficients.
Reduced MIP has 2505 rows, 2975 columns, and 7735 nonzeros.
Reduced MIP has 1195 binaries, 0 generals, 0 SOSs, and 0 indicators.
Presolve time = 0.00 sec. (5.12 ticks)
Represolve time = 0.02 sec. (18.91 ticks)
   1738     0  1070214.8248   702  7973370.0000     Cuts: 726    27978   86.58%
   1738     0  1165198.3647   693  7973370.0000     Cuts: 726    28821   85.39%
   1738     0  1234987.6657   687  7973370.0000     Cuts: 726    29661   84.51%
   1738     2  1234987.6657   687  7973370.0000  1234987.6657    29661   84.51%
   1756    20  1328013.4883   568  7973370.0000  1235146.5611    30362   84.51%
   1778    42  1340941.5650   524  7973370.0000  1235146.5611    30893   84.51%
   1820    82  1380459.1774   465  7973370.0000  1235146.5611    31930   84.51%
   1826     8  1329154.1230   681  7973370.0000  1235743.5270    30010   84.50%
   1838    99  1510639.6376   526  7973370.0000  1235743.5270    36818   84.50%
   1882   142  1573207.4245   419  7973370.0000  1267254.4862    48935   84.11%
*  2129+  189                      1821555.0000  1311144.0615            28.02%
   2466   488  1523679.5920   515  1821555.0000  1311144.0615    84828   28.02%
Elapsed time = 3.90 sec. (5447.46 ticks, tree = 0.61 MB, solutions = 3)
*  3290+ 1088                      1774968.0000  1311144.0615            26.13%
*  3299+ 1088                      1726567.0000  1311144.0615            24.06%
*  3331+ 1236                      1723207.0000  1311144.0615            23.91%
*  3343+ 1234                      1704291.0000  1311144.0615            23.07%
   3401  1245  1561644.8479   139  1704291.0000  1311144.0615   124651   23.07%
*  3411+ 1350                      1677992.0000  1311144.0615            21.86%
*  3417+ 1350                      1670014.0000  1311144.0615            21.49%
*  3418+ 1350                      1646747.0000  1311144.0615            20.38%
*  3612+ 1409                      1564251.0000  1311144.0615            16.18%
*  3619+ 1408                      1526210.0000  1311144.0615            14.09%
*  3636+ 1408                      1524176.0000  1311144.0615            13.98%
*  3646+ 1408                      1519456.0000  1311144.0615            13.71%
*  3671+ 1408                      1518354.0000  1311144.0615            13.65%
*  3679+ 1408                      1517565.0000  1311144.0615            13.60%

Clique cuts applied:  1
Cover cuts applied:  23
Implied bound cuts applied:  11
Flow cuts applied:  1189
Mixed integer rounding cuts applied:  1477
Flow path cuts applied:  78
Multi commodity flow cuts applied:  24
Lift and project cuts applied:  20
Disjunctive cuts applied:  0
Cone linearizations applied:  0

Root node processing (before b&c):
  Real time             =    0.40 sec. (611.17 ticks)
Parallel b&c, 8 threads:
  Real time             =    4.61 sec. (6439.09 ticks)
  Sync time (average)   =    0.35 sec.
  Wait time (average)   =    0.00 sec.
                          ------------
Total (root+branch&cut) =    5.01 sec. (7050.25 ticks)
Gap: 13.6%
Upper bound: 1.51756e+06
Lower bound: 1.31114e+06
End of CPLEX run. Time: 5.0121 seconds
